100 500 10 200 10 100
72 174
53 21
48 118
85 116
94 20
63 109
11 111
79 176
18 161
67 107
67 27
60 164
77 198
91 86
51 194
83 17
37 140
19 164
90 181
49 75
75 197
13 20
73 26
35 123
55 141
23 121
71 115
60 141
60 89
26 150
75 190
40 92
88 29
93 199
60 147
23 22
97 69
27 115
62 62
14 106
98 80
27 172
53 123
70 118
98 173
67 127
47 68
91 113
63 108
65 109
79 176
63 41
58 165
61 142
87 197
42 40
45 85
69 104
15 136
55 74
77 123
39 113
35 31
11 111
66 128
63 27
44 152
36 181
59 27
81 177
69 12
100 155
51 40
18 151
23 113
22 117
38 37
30 81
34 68
13 31
88 45
51 132
98 119
93 148
26 78
18 24
11 153
15 11
93 70
62 171
40 190
21 52
42 130
47 119
27 128
72 195
32 31
53 172
52 81
39 120
